BAYES
324
2 2 2 2 2 2 2 2 2 2 2 2 2 2 2 2 2 2 2 2 2 2 2 2 2 2 2 2 2 2 2 2 2 2 2 2 2 2 2 2 2 2 2 2 2 2 2 2 2 2 2 2 2 2 2 2 2 2 2 2 2 2 2 2 2 2 2 2 2 2 2 2 2 2 2 2 2 2 2 2 2 2 2 2 2 2 2 2 2 2 2 2 2 2 2 2 2 2 2 2 2 2 2 2 2 2 2 2 2 2 2 2 2 2 2 2 2 2 2 2 2 2 2 2 2 2 2 2 2 2 2 2 2 2 2 2 2 2 2 2 2 2 2 2 2 2 2 2 2 2 2 2 2 2 2 2 2 2 2 2 2 2 2 2 2 2 2 2 2 2 2 2 2 2 2 2 2 2 2 2 2 2 2 2 2 2 2 2 2 2 2 2 2 2 2 2 2 2 2 2 2 2 2 2 2 2 2 2 2 2 2 2 2 2 2 2 2 2 2 2 2 2 2 2 2 2 2 2 2 2 2 2 2 2 2 2 2 2 2 2 2 2 2 2 2 2 2 2 2 2 2 2 2 2 2 2 2 2 2 2 2 2 2 2 2 2 2 2 2 2 2 2 2 2 2 2 2 2 2 2 2 2 2 2 2 2 2 2 2 2 2 2 2 2 2 2 2 2 2 2 2 2 2 2 2 2 2 2 2 2 2 2 2 2 2 2 2 2 2 2 2 2 2 2
324
3 18 1 0
3 19 2 1
3 20 3 2
3 21 4 3
3 22 5 4
3 23 6 5
3 24 7 6
3 25 8 7
3 26 9 8
3 27 10 9
3 28 11 10
3 29 12 11
3 30 13 12
3 31 14 13
3 32 15 14
3 33 16 15
3 34 17 16
2 35 17
3 36 19 18
3 37 20 19
3 38 21 20
3 39 22 21
3 40 23 22
3 41 24 23
3 42 25 24
3 43 26 25
3 44 27 26
3 45 28 27
3 46 29 28
3 47 30 29
3 48 31 30
3 49 32 31
3 50 33 32
3 51 34 33
3 52 35 34
2 53 35
3 54 37 36
3 55 38 37
3 56 39 38
3 57 40 39
3 58 41 40
3 59 42 41
3 60 43 42
3 61 44 43
3 62 45 44
3 63 46 45
3 64 47 46
3 65 48 47
3 66 49 48
3 67 50 49
3 68 51 50
3 69 52 51
3 70 53 52
2 71 53
3 72 55 54
3 73 56 55
3 74 57 56
3 75 58 57
3 76 59 58
3 77 60 59
3 78 61 60
3 79 62 61
3 80 63 62
3 81 64 63
3 82 65 64
3 83 66 65
3 84 67 66
3 85 68 67
3 86 69 68
3 87 70 69
3 88 71 70
2 89 71
3 90 73 72
3 91 74 73
3 92 75 74
3 93 76 75
3 94 77 76
3 95 78 77
3 96 79 78
3 97 80 79
3 98 81 80
3 99 82 81
3 100 83 82
3 101 84 83
3 102 85 84
3 103 86 85
3 104 87 86
3 105 88 87
3 106 89 88
2 107 89
3 108 91 90
3 109 92 91
3 110 93 92
3 111 94 93
3 112 95 94
3 113 96 95
3 114 97 96
3 115 98 97
3 116 99 98
3 117 100 99
3 118 101 100
3 119 102 101
3 120 103 102
3 121 104 103
3 122 105 104
3 123 106 105
3 124 107 106
2 125 107
3 126 109 108
3 127 110 109
3 128 111 110
3 129 112 111
3 130 113 112
3 131 114 113
3 132 115 114
3 133 116 115
3 134 117 116
3 135 118 117
3 136 119 118
3 137 120 119
3 138 121 120
3 139 122 121
3 140 123 122
3 141 124 123
3 142 125 124
2 143 125
3 144 127 126
3 145 128 127
3 146 129 128
3 147 130 129
3 148 131 130
3 149 132 131
3 150 133 132
3 151 134 133
3 152 135 134
3 153 136 135
3 154 137 136
3 155 138 137
3 156 139 138
3 157 140 139
3 158 141 140
3 159 142 141
3 160 143 142
2 161 143
3 162 145 144
3 163 146 145
3 164 147 146
3 165 148 147
3 166 149 148
3 167 150 149
3 168 151 150
3 169 152 151
3 170 153 152
3 171 154 153
3 172 155 154
3 173 156 155
3 174 157 156
3 175 158 157
3 176 159 158
3 177 160 159
3 178 161 160
2 179 161
3 180 163 162
3 181 164 163
3 182 165 164
3 183 166 165
3 184 167 166
3 185 168 167
3 186 169 168
3 187 170 169
3 188 171 170
3 189 172 171
3 190 173 172
3 191 174 173
3 192 175 174
3 193 176 175
3 194 177 176
3 195 178 177
3 196 179 178
2 197 179
3 198 181 180
3 199 182 181
3 200 183 182
3 201 184 183
3 202 185 184
3 203 186 185
3 204 187 186
3 205 188 187
3 206 189 188
3 207 190 189
3 208 191 190
3 209 192 191
3 210 193 192
3 211 194 193
3 212 195 194
3 213 196 195
3 214 197 196
2 215 197
3 216 199 198
3 217 200 199
3 218 201 200
3 219 202 201
3 220 203 202
3 221 204 203
3 222 205 204
3 223 206 205
3 224 207 206
3 225 208 207
3 226 209 208
3 227 210 209
3 228 211 210
3 229 212 211
3 230 213 212
3 231 214 213
3 232 215 214
2 233 215
3 234 217 216
3 235 218 217
3 236 219 218
3 237 220 219
3 238 221 220
3 239 222 221
3 240 223 222
3 241 224 223
3 242 225 224
3 243 226 225
3 244 227 226
3 245 228 227
3 246 229 228
3 247 230 229
3 248 231 230
3 249 232 231
3 250 233 232
2 251 233
3 252 235 234
3 253 236 235
3 254 237 236
3 255 238 237
3 256 239 238
3 257 240 239
3 258 241 240
3 259 242 241
3 260 243 242
3 261 244 243
3 262 245 244
3 263 246 245
3 264 247 246
3 265 248 247
3 266 249 248
3 267 250 249
3 268 251 250
2 269 251
3 270 253 252
3 271 254 253
3 272 255 254
3 273 256 255
3 274 257 256
3 275 258 257
3 276 259 258
3 277 260 259
3 278 261 260
3 279 262 261
3 280 263 262
3 281 264 263
3 282 265 264
3 283 266 265
3 284 267 266
3 285 268 267
3 286 269 268
2 287 269
3 288 271 270
3 289 272 271
3 290 273 272
3 291 274 273
3 292 275 274
3 293 276 275
3 294 277 276
3 295 278 277
3 296 279 278
3 297 280 279
3 298 281 280
3 299 282 281
3 300 283 282
3 301 284 283
3 302 285 284
3 303 286 285
3 304 287 286
2 305 287
3 306 289 288
3 307 290 289
3 308 291 290
3 309 292 291
3 310 293 292
3 311 294 293
3 312 295 294
3 313 296 295
3 314 297 296
3 315 298 297
3 316 299 298
3 317 300 299
3 318 301 300
3 319 302 301
3 320 303 302
3 321 304 303
3 322 305 304
2 323 305
2 307 306
2 308 307
2 309 308
2 310 309
2 311 310
2 312 311
2 313 312
2 314 313
2 315 314
2 316 315
2 317 316
2 318 317
2 319 318
2 320 319
2 321 320
2 322 321
2 323 322
1  323
8
0 1 1 0 1 0 1 0
8
1 0 1 0 0 1 0 1
8
1 0 1 0 1 0 0 1
8
1 0 0 1 0 1 0 1
8
0 1 1 0 1 0 0 1
8
0.24299326793013076 0.7570067320698691 0.4339243816421327 0.5660756183578672 0.18980238651291226 0.8101976134870877 0.5501951321895373 0.4498048678104628
8
0 1 1 0 0 1 0 1
8
0 1 0 1 1 0 1 0
8
0 1 1 0 1 0 0 1
8
1 0 0 1 1 0 0 1
8
1 0 0 1 0 1 0 1
8
1 0 1 0 1 0 0 1
8
1 0 1 0 0 1 0 1
8
0 1 0 1 0 1 0 1
8
1 0 1 0 1 0 1 0
8
1 0 0 1 1 0 0 1
8
1 0 1 0 0 1 1 0
4
0 1 1 0
8
0 1 0 1 1 0 0 1
8
0 1 1 0 0 1 1 0
8
1 0 1 0 0 1 0 1
8
0 1 0 1 1 0 0 1
8
0.5022470008990378 0.4977529991009622 0.35675056084116097 0.6432494391588391 0.11813529902359214 0.8818647009764079 0.38551820129355946 0.6144817987064406
8
0 1 0 1 0 1 1 0
8
1 0 0 1 0 1 0 1
8
1 0 0 1 0 1 1 0
8
0 1 0 1 0 1 1 0
8
1 0 1 0 1 0 1 0
8
0 1 0 1 0 1 0 1
8
0 1 1 0 1 0 0 1
8
0 1 0 1 1 0 0 1
8
1 0 1 0 1 0 0 1
8
0 1 0 1 0 1 1 0
8
0 1 0 1 0 1 1 0
8
1 0 1 0 1 0 1 0
4
0 1 1 0
8
1 0 0 1 1 0 0 1
8
0 1 0 1 1 0 1 0
8
0.87950618466511 0.12049381533489005 0.4455451449235134 0.5544548550764867 0.398907751522847 0.601092248477153 0.553005062595653 0.446994937404347
8
1 0 0 1 0 1 0 1
8
1 0 1 0 0 1 1 0
8
1 0 0 1 1 0 1 0
8
1 0 0 1 0 1 1 0
8
0 1 0 1 1 0 0 1
8
0 1 1 0 0 1 0 1
8
0.1030878036576932 0.8969121963423068 0.9331465618605491 0.06685343813945092 0.9177126918092425 0.08228730819075744 0.4004447565163327 0.5995552434836673
8
1 0 1 0 0 1 1 0
8
0 1 1 0 0 1 0 1
8
0.5436687917102488 0.45633120828975116 0.7582040940168839 0.24179590598311598 0.6805043235297812 0.31949567647021876 0.12611735051927697 0.873882649480723
8
0 1 0 1 0 1 0 1
8
1 0 1 0 1 0 0 1
8
0 1 1 0 1 0 1 0
8
1 0 0 1 1 0 0 1
4
0 1 0 1
8
1 0 0 1 1 0 1 0
8
0 1 1 0 1 0 0 1
8
0 1 0 1 1 0 0 1
8
0 1 1 0 1 0 0 1
8
0 1 0 1 0 1 0 1
8
0.472143908571039 0.527856091428961 0.43176572299358135 0.5682342770064187 0.6570512349197875 0.3429487650802126 0.6198786357227943 0.38012136427720566
8
1 0 1 0 0 1 0 1
8
1 0 0 1 1 0 1 0
8
0 1 0 1 1 0 0 1
8
0.595078591381217 0.40492140861878295 0.4125296670807474 0.5874703329192527 0.4060868421930124 0.5939131578069876 0.3232441588671606 0.6767558411328394
8
0 1 0 1 0 1 1 0
8
0 1 0 1 1 0 1 0
8
1 0 1 0 0 1 0 1
8
0 1 0 1 1 0 1 0
8
1 0 1 0 1 0 0 1
8
1 0 1 0 0 1 0 1
8
0.015302603238623706 0.9846973967613762 0.17429702180437 0.82570297819563 0.6943804402696763 0.30561955973032373 0.5165865289848691 0.4834134710151308
4
1 0 1 0
8
1 0 1 0 1 0 1 0
8
0 1 0 1 1 0 0 1
8
0.7295029577562794 0.27049704224372073 0.9739485992564417 0.02605140074355826 0.9580301767155325 0.04196982328446767 0.5267049867457285 0.47329501325427153
8
0 1 0 1 0 1 1 0
8
0 1 1 0 1 0 0 1
8
0.6029073490376478 0.39709265096235224 0.1531108807734604 0.8468891192265395 0.7791434773846292 0.22085652261537084 0.46955145537027987 0.53044854462972
8
1 0 0 1 1 0 1 0
8
0 1 1 0 0 1 1 0
8
1 0 0 1 0 1 1 0
8
1 0 1 0 1 0 1 0
8
0.7326568517499328 0.2673431482500672 0.517924105921837 0.482075894078163 0.919294279292805 0.08070572070719496 0.5612174141182626 0.4387825858817373
8
0 1 1 0 1 0 0 1
8
0 1 1 0 0 1 1 0
8
0 1 1 0 1 0 0 1
8
0.6589134390551667 0.34108656094483325 0.1154992277362557 0.8845007722637442 0.2596974931468747 0.7403025068531253 0.554648405777042 0.44535159422295795
8
0 1 1 0 0 1 1 0
8
0 1 0 1 1 0 1 0
4
0 1 1 0
8
1 0 1 0 1 0 1 0
8
1 0 0 1 0 1 0 1
8
0 1 0 1 0 1 0 1
8
0 1 1 0 1 0 0 1
8
1 0 1 0 0 1 1 0
8
0 1 0 1 0 1 0 1
8
1 0 1 0 0 1 1 0
8
0 1 1 0 0 1 1 0
8
0 1 0 1 1 0 0 1
8
1 0 1 0 1 0 0 1
8
0 1 1 0 1 0 0 1
8
1 0 1 0 1 0 0 1
8
1 0 0 1 1 0 0 1
8
1 0 1 0 0 1 1 0
8
0 1 0 1 0 1 1 0
8
1 0 1 0 1 0 1 0
8
0 1 1 0 0 1 1 0
4
0.2205858095896863 0.7794141904103137 0.5880658783381598 0.4119341216618401
8
1 0 1 0 1 0 1 0
8
0 1 0 1 0 1 1 0
8
0.6108601465950881 0.3891398534049119 0.5056686546929738 0.49433134530702616 0.9400483537418611 0.0599516462581389 0.34554564626814516 0.6544543537318548
8
0 1 0 1 1 0 1 0
8
1 0 0 1 1 0 1 0
8
0 1 1 0 0 1 0 1
8
0.8685954081918245 0.1314045918081755 0.8744497743063536 0.12555022569364638 0.6345944072074652 0.36540559279253476 0.4149794610992228 0.5850205389007773
8
1 0 0 1 1 0 1 0
8
0 1 1 0 0 1 1 0
8
1 0 1 0 1 0 1 0
8
0 1 0 1 1 0 1 0
8
1 0 0 1 0 1 0 1
8
0 1 0 1 0 1 0 1
8
1 0 1 0 0 1 1 0
8
0 1 1 0 0 1 0 1
8
0 1 0 1 1 0 1 0
8
1 0 1 0 1 0 1 0
4
0 1 0 1
8
0.5984242404380745 0.40157575956192554 0.36603186681015043 0.6339681331898496 0.39099910447498254 0.6090008955250175 0.4117086863984618 0.5882913136015382
8
1 0 1 0 1 0 1 0
8
0 1 1 0 1 0 0 1
8
1 0 1 0 0 1 1 0
8
0 1 1 0 1 0 1 0
8
1 0 0 1 0 1 1 0
8
1 0 1 0 0 1 0 1
8
1 0 1 0 1 0 1 0
8
1 0 0 1 0 1 0 1
8
1 0 0 1 1 0 0 1
8
1 0 0 1 1 0 0 1
8
1 0 0 1 0 1 0 1
8
1 0 0 1 1 0 1 0
8
1 0 0 1 0 1 1 0
8
0 1 1 0 0 1 0 1
8
0 1 1 0 1 0 0 1
8
1 0 1 0 0 1 0 1
4
1 0 1 0
8
1 0 0 1 1 0 0 1
8
1 0 0 1 1 0 0 1
8
0 1 1 0 1 0 1 0
8
1 0 0 1 0 1 0 1
8
1 0 0 1 0 1 0 1
8
0.3911459210998619 0.6088540789001381 0.5711064691606045 0.42889353083939546 0.4880273926669704 0.5119726073330296 0.05611093468906685 0.9438890653109332
8
0 1 0 1 1 0 0 1
8
1 0 1 0 0 1 0 1
8
0.4159257407017215 0.5840742592982786 0.6734284431997387 0.3265715568002613 0.4350928585401588 0.5649071414598412 0.5193585710900882 0.4806414289099118
8
0 1 1 0 1 0 0 1
8
0 1 0 1 1 0 0 1
8
0.5326843190253936 0.46731568097460635 0.34766306911657646 0.6523369308834235 0.41045231605537735 0.5895476839446226 0.17266266539348846 0.8273373346065115
8
1 0 0 1 1 0 0 1
8
1 0 1 0 0 1 0 1
8
1 0 1 0 0 1 0 1
8
0 1 0 1 0 1 0 1
8
0 1 0 1 0 1 0 1
4
0 1 1 0
8
1 0 0 1 0 1 1 0
8
0.05477627341630857 0.9452237265836915 0.3483126275940286 0.6516873724059714 0.6502531937406457 0.34974680625935434 0.5652535815125282 0.43474641848747175
8
0.49500405528490293 0.5049959447150971 0.6272744828879807 0.37272551711201934 0.3026369861432686 0.6973630138567313 0.34798664880351826 0.6520133511964817
8
0.4164672296429907 0.5835327703570093 0.7022188103854085 0.29778118961459155 0.48832018763735124 0.5116798123626488 0.16478965531719708 0.8352103446828029
8
1 0 1 0 1 0 0 1
8
0 1 1 0 1 0 1 0
8
0 1 1 0 1 0 1 0
8
0 1 1 0 1 0 0 1
8
0 1 1 0 1 0 0 1
8
1 0 1 0 0 1 1 0
8
0.8941313837047423 0.1058686162952577 0.5485613832076943 0.45143861679230574 0.54366718484756 0.45633281515243995 0.5086187871863267 0.49138121281367325
8
0 1 0 1 1 0 1 0
8
0 1 1 0 1 0 1 0
8
1 0 0 1 1 0 0 1
8
0.422864725203894 0.5771352747961059 0.4384868630248067 0.5615131369751932 0.5285718408409878 0.4714281591590121 0.31093931392233626 0.6890606860776637
8
0 1 0 1 1 0 0 1
8
1 0 0 1 0 1 0 1
4
0 1 0 1
8
0 1 0 1 1 0 0 1
8
1 0 0 1 1 0 1 0
8
0 1 0 1 0 1 0 1
8
0 1 0 1 1 0 0 1
8
1 0 1 0 0 1 1 0
8
1 0 1 0 0 1 1 0
8
0 1 0 1 0 1 1 0
8
1 0 0 1 0 1 1 0
8
0 1 1 0 0 1 0 1
8
0.8707207337991067 0.1292792662008934 0.2541556428761082 0.7458443571238919 0.652773231375265 0.347226768624735 0.4890966506338704 0.5109033493661296
8
1 0 1 0 0 1 1 0
8
1 0 0 1 0 1 0 1
8
1 0 1 0 1 0 1 0
8
0 1 0 1 1 0 0 1
8
0 1 1 0 1 0 1 0
8
1 0 1 0 1 0 0 1
8
1 0 1 0 1 0 1 0
4
1 0 0 1
8
1 0 0 1 1 0 0 1
8
1 0 1 0 1 0 0 1
8
1 0 0 1 0 1 1 0
8
0 1 1 0 1 0 0 1
8
0.165997675595097 0.834002324404903 0.7753474225096697 0.22465257749033027 0.7582132441730409 0.24178675582695902 0.420555355614219 0.579444644385781
8
1 0 1 0 1 0 1 0
8
0 1 1 0 0 1 0 1
8
1 0 0 1 0 1 0 1
8
1 0 1 0 0 1 1 0
8
1 0 1 0 0 1 0 1
8
1 0 0 1 0 1 0 1
8
0 1 0 1 1 0 1 0
8
0.7077389186781968 0.2922610813218031 0.15140925614791415 0.8485907438520859 0.32405731820293726 0.6759426817970628 0.46495066062147805 0.535049339378522
8
1 0 0 1 1 0 1 0
8
0 1 0 1 0 1 1 0
8
1 0 1 0 1 0 1 0
8
1 0 0 1 0 1 1 0
4
1 0 1 0
8
0 1 0 1 1 0 1 0
8
0 1 0 1 0 1 0 1
8
0 1 1 0 0 1 1 0
8
0 1 1 0 0 1 0 1
8
1 0 0 1 0 1 1 0
8
1 0 1 0 1 0 1 0
8
1 0 1 0 1 0 1 0
8
1 0 1 0 1 0 0 1
8
1 0 0 1 0 1 0 1
8
1 0 1 0 1 0 0 1
8
0 1 0 1 0 1 0 1
8
0 1 0 1 1 0 1 0
8
0 1 1 0 1 0 1 0
8
0 1 0 1 0 1 1 0
8
1 0 0 1 0 1 1 0
8
1 0 1 0 0 1 1 0
8
0 1 1 0 0 1 1 0
4
1 0 0 1
8
1 0 1 0 0 1 1 0
8
0.1730778021855817 0.8269221978144183 0.5481420967647067 0.4518579032352932 0.5554787601403051 0.444521239859695 0.4208827416518966 0.5791172583481033
8
0 1 0 1 0 1 0 1
8
0 1 0 1 0 1 1 0
8
0 1 0 1 0 1 1 0
8
1 0 0 1 1 0 0 1
8
0 1 0 1 1 0 1 0
8
0 1 1 0 0 1 0 1
8
1 0 0 1 1 0 1 0
8
0 1 0 1 1 0 0 1
8
0.1277535744989186 0.8722464255010814 0.5981131879402556 0.4018868120597444 0.43210374433863113 0.5678962556613688 0.6799763967187957 0.32002360328120427
8
0 1 0 1 0 1 1 0
8
0 1 0 1 1 0 1 0
8
0 1 1 0 0 1 1 0
8
0 1 0 1 1 0 0 1
8
0 1 0 1 1 0 0 1
8
1 0 0 1 0 1 0 1
4
1 0 0 1
8
1 0 0 1 0 1 1 0
8
1 0 1 0 1 0 1 0
8
0 1 0 1 0 1 0 1
8
0 1 1 0 1 0 1 0
8
0 1 0 1 1 0 0 1
8
1 0 0 1 0 1 0 1
8
0.5766936829024215 0.4233063170975785 0.4108053529641764 0.5891946470358236 0.3637370193016969 0.6362629806983031 0.4963676041868219 0.5036323958131781
8
0 1 0 1 0 1 0 1
8
1 0 1 0 0 1 0 1
8
1 0 0 1 0 1 1 0
8
0 1 0 1 1 0 1 0
8
0.42183231475251876 0.5781676852474813 0.0719087992628257 0.9280912007371742 0.626052217204474 0.37394778279552593 0.3706755432442003 0.6293244567557996
8
0 1 0 1 0 1 0 1
8
1 0 1 0 0 1 1 0
8
0 1 1 0 0 1 1 0
8
1 0 0 1 0 1 1 0
8
0 1 1 0 1 0 1 0
4
0 1 0 1
8
0 1 0 1 0 1 0 1
8
0 1 0 1 0 1 0 1
8
0 1 1 0 1 0 1 0
8
1 0 0 1 0 1 0 1
8
1 0 1 0 1 0 0 1
8
0 1 0 1 0 1 1 0
8
0 1 0 1 0 1 0 1
8
1 0 1 0 0 1 0 1
8
0 1 1 0 0 1 0 1
8
1 0 1 0 0 1 0 1
8
0 1 1 0 0 1 0 1
8
1 0 1 0 1 0 1 0
8
1 0 1 0 1 0 1 0
8
1 0 0 1 1 0 1 0
8
1 0 1 0 0 1 1 0
8
0 1 1 0 0 1 1 0
8
1 0 1 0 0 1 0 1
4
0 1 0 1
8
0 1 0 1 0 1 1 0
8
1 0 1 0 0 1 0 1
8
1 0 0 1 1 0 1 0
8
1 0 1 0 0 1 0 1
8
0 1 1 0 1 0 1 0
8
1 0 0 1 0 1 1 0
8
0 1 1 0 1 0 1 0
8
1 0 0 1 0 1 1 0
8
0 1 0 1 1 0 1 0
8
1 0 1 0 0 1 0 1
8
1 0 0 1 1 0 0 1
8
1 0 0 1 0 1 0 1
8
1 0 1 0 1 0 1 0
8
1 0 0 1 0 1 0 1
8
1 0 1 0 1 0 1 0
8
0 1 0 1 1 0 1 0
8
1 0 1 0 0 1 0 1
4
1 0 0 1
4
1 0 0 1
4
0 1 0 1
4
0 1 1 0
4
0 1 1 0
4
0 1 0 1
4
1 0 0 1
4
1 0 0 1
4
1 0 1 0
4
1 0 1 0
4
0.5090491109446379 0.4909508890553622 0.5518661319500776 0.4481338680499225
4
1 0 0 1
4
1 0 1 0
4
1 0 0 1
4
1 0 0 1
4
1 0 0 1
4
0 1 0 1
4
1 0 1 0
2
0.8078364199624214 0.19216358003757858
